#+++++++++++++++++++++++++++++++++++
##### NWChem input script #### START
#+++++++++++++++++++++++++++++++++++
echo
start cn5-neutral
title cn5-neutral

memory total 800 stack 400 heap 50 global 350 mb

geometry noautoz units angstrom nocenter
symmetry c1
C 0.000000 1.183601 -0.363998
N 0.000000 2.388323 0.161299
C 0.000000 0.000000 0.350122
C 0.000000 -1.183601 -0.363998
N 0.000000 -2.388323 0.161299
H 0.000000 3.206628 -0.422987
H 0.000000 1.149474 -1.446393
H 0.000000 -2.529638 1.158454
H 0.000000 -3.206628 -0.422987
H 0.000000 -1.149474 -1.446393
H 0.000000 0.000000 1.430916
H 0.000000 2.529638 1.158454
end

## def2tzvp
basis spherical
* library def2-tzvp
end

charge 1

scf
direct
vectors input atomic output cn5-neutral-hf.movecs
end

task scf energy

dft
grid xfine
direct
xc pbe0
vectors input cn5-neutral-hf.movecs output cn5-neutral-pbe0.movecs
convergence energy 1d-8
iterations 200
end

task dft energy

#+++++++++++++++++++++++++++++++++++
##### NWChem input script ####   END
#+++++++++++++++++++++++++++++++++++
